109
105.0 141.0 
80.0 164.0 
80.0 107.0 
105.0 125.0 
90.0 94.0 
105.0 141.0 
105.0 141.0 
105.0 141.0 
110.0 122.0 
90.0 94.0 
105.0 141.0 
105.0 141.0 
80.0 164.0 
105.0 141.0 
105.0 125.0 
90.0 94.0 
105.0 141.0 
105.0 141.0 
80.0 164.0 
105.0 141.0 
105.0 125.0 
90.0 94.0 
105.0 141.0 
105.0 141.0 
80.0 164.0 
105.0 141.0 
105.0 125.0 
90.0 94.0 
105.0 141.0 
105.0 141.0 
80.0 164.0 
105.0 141.0 
105.0 125.0 
90.0 94.0 
105.0 141.0 
105.0 141.0 
105.0 141.0 
105.0 125.0 
90.0 94.0 
105.0 141.0 
105.0 141.0 
105.0 141.0 
105.0 141.0 
90.0 94.0 
90.0 94.0 
105.0 141.0 
80.0 164.0 
105.0 141.0 
105.0 125.0 
90.0 94.0 
105.0 141.0 
105.0 141.0 
105.0 141.0 
105.0 125.0 
105.0 141.0 
80.0 164.0 
105.0 141.0 
85.0 156.0 
80.0 107.0 
110.0 138.0 
90.0 94.0 
90.0 94.0 
105.0 141.0 
80.0 164.0 
105.0 141.0 
105.0 141.0 
90.0 94.0 
105.0 141.0 
80.0 164.0 
105.0 141.0 
105.0 141.0 
105.0 125.0 
105.0 141.0 
80.0 164.0 
105.0 141.0 
90.0 94.0 
105.0 141.0 
105.0 141.0 
80.0 164.0 
105.0 141.0 
105.0 141.0 
105.0 125.0 
105.0 141.0 
80.0 164.0 
85.0 156.0 
105.0 141.0 
105.0 125.0 
105.0 141.0 
80.0 164.0 
105.0 141.0 
105.0 141.0 
105.0 125.0 
80.0 164.0 
105.0 141.0 
105.0 141.0 
90.0 94.0 
90.0 94.0 
105.0 141.0 
105.0 141.0 
80.0 107.0 
110.0 138.0 
90.0 94.0 
90.0 94.0 
105.0 141.0 
80.0 164.0 
105.0 141.0 
105.0 141.0 
90.0 94.0 
90.0 94.0 

0 18 19 26 30 25 21 20 11 10 9 7 8 31 
0 17 4 6 5 12 8 7 9 10 11 19 18 31 
0 27 18 19 26 30 25 21 20 8 31 
0 27 26 30 25 21 20 11 10 9 8 7 31 
0 18 19 26 30 25 24 22 21 20 31 
0 18 19 26 30 25 21 20 11 10 9 8 7 31 
0 18 19 26 30 25 21 20 11 10 9 7 8 31 
0 18 19 26 30 25 21 20 11 10 9 8 7 31 
0 27 26 30 25 22 21 20 11 10 9 8 31 
0 18 19 26 30 25 24 22 21 20 31 
0 18 19 26 30 25 21 20 11 10 9 8 7 31 
0 18 19 26 30 25 21 20 11 10 9 7 8 31 
0 17 4 6 5 12 8 7 9 10 11 19 18 31 
0 18 19 26 30 25 21 20 11 10 9 8 7 31 
0 27 26 30 25 21 20 11 10 9 8 7 31 
0 18 19 26 30 25 24 22 21 20 31 
0 18 19 26 30 25 21 20 11 10 9 8 7 31 
0 18 19 26 30 25 21 20 11 10 9 7 8 31 
0 17 4 6 5 12 8 7 9 10 11 19 18 31 
0 18 19 26 30 25 21 20 11 10 9 8 7 31 
0 27 26 30 25 21 20 11 10 9 8 7 31 
0 18 19 26 30 25 24 22 21 20 31 
0 18 19 26 30 25 21 20 11 10 9 8 7 31 
0 18 19 26 30 25 21 20 11 10 9 7 8 31 
0 17 4 6 5 12 8 7 9 10 11 19 18 31 
0 18 19 26 30 25 21 20 11 10 9 8 7 31 
0 27 26 30 25 21 20 11 10 9 8 7 31 
0 18 19 26 30 25 24 22 21 20 31 
0 18 19 26 30 25 21 20 11 10 9 8 7 31 
0 18 19 26 30 25 21 20 11 10 9 7 8 31 
0 17 4 6 5 12 8 7 9 10 11 19 18 31 
0 18 19 26 30 25 21 20 11 10 9 8 7 31 
0 27 26 30 25 21 20 11 10 9 8 7 31 
0 18 19 26 30 25 24 22 21 20 31 
0 18 19 26 30 25 21 20 11 10 9 8 7 31 
0 18 19 26 30 25 21 20 11 10 9 7 8 31 
0 18 19 26 30 25 21 20 11 10 9 8 7 31 
0 27 26 30 25 21 20 11 10 9 8 7 31 
0 18 19 26 30 25 24 22 21 20 31 
0 18 19 26 30 25 21 20 11 10 9 8 7 31 
0 18 19 26 30 25 21 20 11 10 9 7 8 31 
0 18 19 26 30 25 21 20 11 10 9 8 7 31 
0 18 19 26 30 25 21 20 11 10 9 8 7 31 
0 18 19 26 30 25 24 22 21 20 31 
0 18 19 26 30 25 24 22 21 20 31 
0 18 19 26 30 25 21 20 11 10 9 7 8 31 
0 17 4 6 5 12 8 7 9 10 11 19 18 31 
0 18 19 26 30 25 21 20 11 10 9 8 7 31 
0 27 26 30 25 21 20 11 10 9 8 7 31 
0 18 19 26 30 25 24 22 21 20 31 
0 18 19 26 30 25 21 20 11 10 9 8 7 31 
0 18 19 26 30 25 21 20 11 10 9 7 8 31 
0 18 19 26 30 25 21 20 11 10 9 8 7 31 
0 27 26 30 25 21 20 11 10 9 8 7 31 
0 18 19 26 30 25 21 20 11 10 9 8 7 31 
0 17 4 6 5 12 8 7 9 10 11 19 18 31 
0 18 19 26 30 25 21 20 11 10 9 7 8 31 
0 17 4 5 6 1 7 8 9 10 11 19 18 31 
0 27 18 19 26 30 25 21 20 8 31 
0 18 19 26 30 25 22 21 20 11 10 9 8 31 
0 18 19 26 30 25 24 22 21 20 31 
0 18 19 26 30 25 24 22 21 20 31 
0 18 19 26 30 25 21 20 11 10 9 7 8 31 
0 17 4 6 5 12 8 7 9 10 11 19 18 31 
0 18 19 26 30 25 21 20 11 10 9 8 7 31 
0 18 19 26 30 25 21 20 11 10 9 8 7 31 
0 18 19 26 30 25 24 22 21 20 31 
0 18 19 26 30 25 21 20 11 10 9 7 8 31 
0 17 4 6 5 12 8 7 9 10 11 19 18 31 
0 18 19 26 30 25 21 20 11 10 9 8 7 31 
0 18 19 26 30 25 21 20 11 10 9 8 7 31 
0 27 26 30 25 21 20 11 10 9 8 7 31 
0 18 19 26 30 25 21 20 11 10 9 7 8 31 
0 17 4 6 5 12 8 7 9 10 11 19 18 31 
0 18 19 26 30 25 21 20 11 10 9 8 7 31 
0 18 19 26 30 25 24 22 21 20 31 
0 18 19 26 30 25 21 20 11 10 9 8 7 31 
0 18 19 26 30 25 21 20 11 10 9 7 8 31 
0 17 4 6 5 12 8 7 9 10 11 19 18 31 
0 18 19 26 30 25 21 20 11 10 9 8 7 31 
0 18 19 26 30 25 21 20 11 10 9 8 7 31 
0 27 26 30 25 21 20 11 10 9 8 7 31 
0 18 19 26 30 25 21 20 11 10 9 7 8 31 
0 17 4 6 5 12 8 7 9 10 11 19 18 31 
0 17 4 5 6 1 7 8 9 10 11 19 18 31 
0 18 19 26 30 25 21 20 11 10 9 8 7 31 
0 27 26 30 25 21 20 11 10 9 8 7 31 
0 18 19 26 30 25 21 20 11 10 9 7 8 31 
0 17 4 6 5 12 8 7 9 10 11 19 18 31 
0 18 19 26 30 25 21 20 11 10 9 8 7 31 
0 18 19 26 30 25 21 20 11 10 9 8 7 31 
0 27 26 30 25 21 20 11 10 9 8 7 31 
0 17 4 6 5 12 8 7 9 10 11 19 18 31 
0 18 19 26 30 25 21 20 11 10 9 7 8 31 
0 18 19 26 30 25 21 20 11 10 9 8 7 31 
0 18 19 26 30 25 24 22 21 20 31 
0 18 19 26 30 25 24 22 21 20 31 
0 18 19 26 30 25 21 20 11 10 9 8 7 31 
0 18 19 26 30 25 21 20 11 10 9 7 8 31 
0 27 18 19 26 30 25 21 20 8 31 
0 18 19 26 30 25 22 21 20 11 10 9 8 31 
0 18 19 26 30 25 24 22 21 20 31 
0 18 19 26 30 25 24 22 21 20 31 
0 18 19 26 30 25 21 20 11 10 9 7 8 31 
0 17 4 6 5 12 8 7 9 10 11 19 18 31 
0 18 19 26 30 25 21 20 11 10 9 8 7 31 
0 18 19 26 30 25 21 20 11 10 9 8 7 31 
0 18 19 26 30 25 24 22 21 20 31 
0 18 19 26 30 25 24 22 21 20 31 
